multiobj/instances/uniform/Ter.5.3.0.80.1.in
5 3
0 771 544 977 248 
771 0 574 244 593 
544 574 0 691 433 
977 244 691 0 73 
248 593 433 73 0 
0 862 732 619 848 
862 0 518 568 572 
732 518 0 67 921 
619 568 67 0 812 
848 572 921 812 0 
0 685 610 405 764 
685 0 671 752 578 
610 671 0 147 934 
405 752 147 0 825 
764 578 934 825 0 
0 883 797 617 749 
883 0 468 683 607 
797 468 0 193 857 
617 683 193 0 896 
749 607 857 896 0 
