multiobj/solutions/Ter.5.3.0.80.1.out
2 3
1 2 3 0 4 
5804366 5693522 6104550 
2 1 0 3 4 
5836436 5629512 6090020 
